unsat
(define-fun f ((x0 (BitVec 64)) (x1 (BitVec 64))) (BitVec 64) (bvadd #b0000000000000000000000000000000000000000000000000000000000011001 (bvudiv x1 #b0000000000000000000000000000000000000000000000000000000000001101)))
(define-fun f ((x0 (BitVec 64)) (x1 (BitVec 64))) (BitVec 64) (bvadd #b0000000000000000000000000000000000000000000000000000000000011001 (bvudiv x1 #b0000000000000000000000000000000000000000000000000000000000001101)))
int-arith49.sl running time : 2 m 27.500504624 s
times : 147.500504624
